120
[12,13,14,15,16,17,18,19,20,21,22,23,24,25,26,27,28,29,30,31,32,33,34,35,36,37,38,39,40,41,42,43,44,45,46,47,48,49,50,51,52,53,54,55,56,57,58,59,60,61,62,63,64,65,66,67,68,69,70,71,72,73,74,75,76,77,78,79,80,81,82,83,84]
[7,7,12,4,7,9,6,7,2,7,7,7,8,9,6,8,6,8,6,11,3,7,2,7,7,8,4,7,5,4,8,6,12,3,3,8,8,4,12,8,6,3,2,6,4,7,10,13,6,8,8,5,3,9,9,5,3,7,10,3,7,10,6,7,7,4,7,7,14,9,7,11,7]
